
<<< setup


<<< generate

Version identifier: 12.10.0.0 | 2019-11-26 | 843d4de2ae
CPXPARAM_TimeLimit                               1200
Tried aggregator 3 times.
MIP Presolve eliminated 5151151 rows and 2913012 columns.
MIP Presolve modified 417334 coefficients.
Aggregator did 900 substitutions.
Reduced MIP has 90999 rows, 97638 columns, and 604868 nonzeros.
Reduced MIP has 97589 binaries, 0 generals, 0 SOSs, and 0 indicators.
Presolve time = 8.19 sec. (4675.28 ticks)
Found incumbent of value 20449.000000 after 11.22 sec. (5774.17 ticks)
Probing fixed 2528 vars, tightened 0 bounds.
Probing time = 38.86 sec. (7730.68 ticks)
Tried aggregator 1 time.
Detecting symmetries...
MIP Presolve eliminated 2528 rows and 2528 columns.
Reduced MIP has 88471 rows, 95110 columns, and 587979 nonzeros.
Reduced MIP has 95061 binaries, 0 generals, 0 SOSs, and 0 indicators.
Presolve time = 0.83 sec. (430.99 ticks)
Probing time = 0.23 sec. (47.22 ticks)
Clique table members: 330221.
MIP emphasis: balance optimality and feasibility.
MIP search method: dynamic search.
Parallel mode: deterministic, using up to 4 threads.
Root relaxation solution time = 3.36 sec. (1896.04 ticks)

        Nodes                                         Cuts/
   Node  Left     Objective  IInf  Best Integer    Best Bound    ItCnt     Gap

*     0+    0                        20449.0000   147585.0000           621.72%
      0     0    81107.0000   441    20449.0000    81107.0000     6805  296.63%
      0     0    81107.0000   441    20449.0000       Cuts: 5     6888  296.63%
      0     0    81107.0000   441    20449.0000    Cuts: 3045     9464  296.63%
      0     0    81107.0000   441    20449.0000    Cuts: 2880    11335  296.63%
*     0+    0                        22356.0000    81107.0000           262.80%
      0     0    81107.0000   441    22356.0000    Cuts: 5254    19185  262.80%
Heuristic still looking.
      0     2    81107.0000   128    22356.0000    81107.0000    19185  262.80%
Elapsed time = 169.08 sec. (82392.42 ticks, tree = 0.02 MB, solutions = 2)
      1     3    81107.0000   327    22356.0000    81107.0000    24776  262.80%
      2     4    81107.0000   313    22356.0000    81107.0000    29185  262.80%
      3     5    81107.0000   326    22356.0000    81107.0000    32860  262.80%
      5     6    81107.0000   305    22356.0000    81107.0000    34701  262.80%
      6     8    81107.0000   344    22356.0000    81107.0000    41807  262.80%
      8     5    81107.0000   315    22356.0000    81107.0000    29226  262.80%
      9     9    81107.0000   373    22356.0000    81107.0000    47090  262.80%
     10    10    81107.0000   321    22356.0000    81107.0000    58023  262.80%
     11     9    81107.0000   249    22356.0000    81107.0000    55782  262.80%
     12    11    81107.0000   316    22356.0000    81107.0000    58000  262.80%
Elapsed time = 220.45 sec. (105133.40 ticks, tree = 0.20 MB, solutions = 2)
     13    15    81107.0000   314    22356.0000    81107.0000   100805  262.80%
     16    17    81107.0000   313    22356.0000    81107.0000   110940  262.80%
     18    17    81107.0000   300    22356.0000    81107.0000   101752  262.80%
     20    19    81107.0000   306    22356.0000    81107.0000   104330  262.80%
     21    21    81107.0000   364    22356.0000    81107.0000   116353  262.80%
     23    22    81107.0000   328    22356.0000    81107.0000   117205  262.80%
     24    18    81107.0000   336    22356.0000    81107.0000   122768  262.80%
     25    25    81107.0000   335    22356.0000    81107.0000   140791  262.80%
     26    23    81107.0000   328    22356.0000    81107.0000   122642  262.80%
     28    22    81107.0000   234    22356.0000    81107.0000   130904  262.80%
Elapsed time = 257.28 sec. (119926.84 ticks, tree = 0.44 MB, solutions = 2)
     30    26    81107.0000   353    22356.0000    81107.0000   148949  262.80%
     34    32    81107.0000   321    22356.0000    81107.0000   166865  262.80%
     37    36    81107.0000   311    22356.0000    81107.0000   180669  262.80%
     40    37    81107.0000   282    22356.0000    81107.0000   180701  262.80%
     41     3    81107.0000   210    22356.0000    81107.0000    32033  262.80%
     42    43    81107.0000   246    22356.0000    81107.0000   214678  262.80%
     44    39    81107.0000   201    22356.0000    81107.0000   192856  262.80%
     46    42    81107.0000   270    22356.0000    81107.0000   225704  262.80%
     48    48    81107.0000   313    22356.0000    81107.0000   235373  262.80%
     49    46    81107.0000   245    22356.0000    81107.0000   234297  262.80%
Elapsed time = 437.50 sec. (157930.45 ticks, tree = 2.42 MB, solutions = 2)
     51    48    81107.0000   264    22356.0000    81107.0000   251607  262.80%
     53    49    81107.0000   272    22356.0000    81107.0000   259747  262.80%
     56    49    81107.0000   236    22356.0000    81107.0000   263433  262.80%
     59    55    81107.0000   264    22356.0000    81107.0000   277934  262.80%
     63    51    81107.0000   234    22356.0000    81107.0000   266063  262.80%
     64    57    81107.0000   404    22356.0000    81107.0000   280277  262.80%
     66    61    81107.0000   267    22356.0000    81107.0000   304761  262.80%
     70    53    81107.0000   209    22356.0000    81107.0000   269335  262.80%
     72    63    81107.0000   228    22356.0000    81107.0000   305162  262.80%
     74    65    81107.0000   237    22356.0000    81107.0000   305464  262.80%
Elapsed time = 512.63 sec. (176438.65 ticks, tree = 7.50 MB, solutions = 2)
     76    66    81107.0000   247    22356.0000    81107.0000   306627  262.80%
     78    68    81107.0000   244    22356.0000    81107.0000   306922  262.80%
     80    61    81107.0000   321    22356.0000    81107.0000   316532  262.80%
     84    76    81107.0000   204    22356.0000    81107.0000   338833  262.80%
     87    62    81107.0000   297    22356.0000    81107.0000   317396  262.80%
     89    85    81107.0000   395    22356.0000    81107.0000   360272  262.80%
     93    73    81107.0000   244    22356.0000    81107.0000   322471  262.80%
     96    87    81107.0000   247    22356.0000    81107.0000   363203  262.80%
     97    88    81107.0000   214    22356.0000    81107.0000   364391  262.80%
    100    95    81107.0000   239    22356.0000    81107.0000   392510  262.80%
Elapsed time = 556.38 sec. (198622.69 ticks, tree = 9.51 MB, solutions = 2)
    103    97    81107.0000   216    22356.0000    81107.0000   394233  262.80%
    107    91    81107.0000   377    22356.0000    81107.0000   378493  262.80%
    108   100    81107.0000   270    22356.0000    81107.0000   397182  262.80%
    112    93    81107.0000   248    22356.0000    81107.0000   386149  262.80%
    114   100    81107.0000   277    22356.0000    81107.0000   400267  262.80%
    116   100    81107.0000   179    22356.0000    81107.0000   403805  262.80%
    119   107    81107.0000   285    22356.0000    81107.0000   418761  262.80%
    121   109    81107.0000   223    22356.0000    81107.0000   420002  262.80%
    123    99    81107.0000   230    22356.0000    81107.0000   406282  262.80%
*   124+   91                        81107.0000    81107.0000             0.00%
    124    99    81107.0000   218    81107.0000    81107.0000   408412    0.00%
Elapsed time = 627.67 sec. (227280.68 ticks, tree = 9.71 MB, solutions = 3)
    125   106    81107.0000   451    81107.0000    81107.0000   432339    0.00%
    126    85    81107.0000   260    81107.0000    81107.0000   384617    0.00%

Implied bound cuts applied:  272
Flow cuts applied:  4
Mixed integer rounding cuts applied:  2981

Root node processing (before b&c):
  Real time             =  166.59 sec. (81707.16 ticks)
Parallel b&c, 4 threads:
  Real time             =  461.78 sec. (156555.32 ticks)
  Sync time (average)   =   72.85 sec.
  Wait time (average)   =    0.00 sec.
                          ------------
Total (root+branch&cut) =  628.38 sec. (238262.48 ticks)

<<< solve


OBJECTIVE: 81107

<<< post process


<<< done

